25
32.9 26.41
32.61 23.73
32.32 21.05
32.03 18.37
31.74 15.69
31.45 13.01
31.16 10.33
7.83 23.04
7.58 24.04
6.9 24.82
5.93 25.18
4.9 25.06
4.05 24.47
3.57 23.56
3.57 22.52
4.05 21.61
4.9 21.02
5.93 20.9
6.9 21.26
7.58 22.04
78.19 31.75
77.47 34.19
75.55 35.85
73.04 36.21
70.73 35.16
